c array.sh: path:     /data/qbf/qbf20/PCNF/falsequ_query71_1344n.qdimacs
c array.sh: name:     falsequ_query71_1344n
c array.sh: task:     50
c array.sh: host:     c3n25
c array.sh: uname:    Linux c3n25 4.15.0-135-generic #139-Ubuntu SMP Mon Jan 18 17:38:24 UTC 2021 x86_64 x86_64 x86_64 GNU/Linux
c array.sh: start:    Thu Feb 18 09:53:05 CET 2021
c array.sh: noturbo:  1
c array.sh: governor: 32 performance
c array.sh: tmp:      1%
c array.sh: unzipped: /tmp/local-unzipped-18838260-50-falsequ_query71_1344n.cnf
*** qbfcert: using tmp directory:
*** qbfcert:   /tmp
trace-size: 11235
solving-res 20
proof-size: 2278
cert-size: 1084
cert-header: aag 282 224 0 17 17
merged-header: p cnf 2159 4835
merged-size: 65181
c ---- [ banner ] ------------------------------------------------------------
c
c KISSAT SAT Solver
c Copyright (c) 2019-2020 Armin Biere JKU Linz
c 
c Version 1.0.3 59813addcacc4d6fb880ebdd63685600475aa940
c gcc (Ubuntu 7.5.0-3ubuntu1~18.04) 7.5.0 -W -Wall -O3 -DNEMBEDDED -DNDEBUG -DNMETRICS -DNSTATISTICS
c Sun Feb 14 23:58:54 CET 2021 Linux cluster3 4.15.0-135-generic x86_64
c
c ---- [ parsing ] -----------------------------------------------------------
c
c opened and reading DIMACS file:
c 
c   /tmp/qbfcert_merged_cnf10002.cnf
c 
c parsed 'p cnf 2159 4835' header
c closing input after reading 65181 bytes (64 KB)
c finished parsing after 0.00 seconds
c
c ---- [ solving ] -----------------------------------------------------------
c
c  seconds reductions redundant irredundant
c         MB   restarts    trail    variables
c          level  conflicts   glue      remaining
c
c *  0.00  2 0  0  0   1   0 0% 0 4817 817 38%
c {  0.00  2 0  0  0   1   0 0% 0 4817 817 38%
c }  0.00  2 0  0  0   1   0 0% 0 4817 817 38%
c 0  0.00  2 0  0  0   1   0 0% 0 4817 817 38%
c
c ---- [ result ] ------------------------------------------------------------
c
s UNSATISFIABLE
c
c ---- [ profiling ] ---------------------------------------------------------
c
c           0.00   85.45 %  parse
c           0.00    7.03 %  search
c           0.00    2.06 %  focused
c           0.00    0.00 %  simplify
c =============================================
c           0.00  100.00 %  total
c
c ---- [ statistics ] --------------------------------------------------------
c
c conflicts:                                1              431.22 per second
c decisions:                                0                0.00 per conflict
c propagations:                          1058           456231    per second
c
c ---- [ resources ] ---------------------------------------------------------
c
c maximum-resident-set-size:          2478080 bytes          2 MB
c process-time:                             0s               0.00 seconds
c
c ---- [ shutting down ] -----------------------------------------------------
c
c exit 20
*** qbfcert: VALID
c array.sh: end:      Thu Feb 18 09:53:05 CET 2021
